(set-info :smt-lib-version 2.6)
(set-logic QF_NRA)
(set-info :source |
Generated by a component of the Ultimate program analysis framework [1] 
that implements a constraint-based synthesis of invariants [2].

This SMT script belongs to a set of SMT scripts that was generated by 
applying Ultimate to benchmarks [3] from the SV-COMP 2017 [4,5].

This script might _not_ contain all SMT commands that are used by 
Ultimate . In order to satisfy the restrictions of
the SMT-COMP we have to drop e.g., the commands for getting
values (resp. models), unsatisfiable cores and interpolants.

2017-05-01, Matthias Heizmann (heizmann@informatik.uni-freiburg.de)


[1] https://ultimate.informatik.uni-freiburg.de/
[2] Michael Colon, Sriram Sankaranarayanan, Henny Sipma: Linear Invariant 
Generation Using Non-linear Constraint Solving. CAV 2003: 420-432
[3] https://github.com/sosy-lab/sv-benchmarks
[4] Dirk Beyer: Software Verification with Validation of Results - 
(Report on SV-COMP 2017). TACAS (2) 2017: 331-349
[5] https://sv-comp.sosy-lab.org/2017/
|)
(set-info :license "https://creativecommons.org/licenses/by/4.0/")
(set-info :category "industrial")
(set-info :status unknown)
(declare-fun lp_0_0c () Real)
(declare-fun lp_0_0_ULTIMATE.start_main_~i~4 () Real)
(declare-fun lp_0_1c () Real)
(declare-fun lp_0_1_ULTIMATE.start_main_~i~4 () Real)
(declare-fun lp_1_2c () Real)
(declare-fun lp_1_2_ULTIMATE.start_main_~i~4 () Real)
(declare-fun lp_1_3c () Real)
(declare-fun lp_1_3_ULTIMATE.start_main_~i~4 () Real)
(declare-fun lp_2_4c () Real)
(declare-fun lp_2_4_ULTIMATE.start_main_~i~4 () Real)
(declare-fun lp_2_5c () Real)
(declare-fun lp_2_5_ULTIMATE.start_main_~i~4 () Real)
(declare-fun lp_3_6c () Real)
(declare-fun lp_3_6_ULTIMATE.start_main_~i~4 () Real)
(declare-fun lp_3_7c () Real)
(declare-fun lp_3_7_ULTIMATE.start_main_~i~4 () Real)
(declare-fun lp_4_8c () Real)
(declare-fun lp_4_8_ULTIMATE.start_main_~i~4 () Real)
(declare-fun lp_4_9c () Real)
(declare-fun lp_4_9_ULTIMATE.start_main_~i~4 () Real)
(declare-fun motzkin_1462_0 () Real)
(declare-fun motzkin_1462_1 () Real)
(declare-fun motzkin_1462_2 () Real)
(declare-fun motzkin_1463_0 () Real)
(declare-fun motzkin_1463_1 () Real)
(declare-fun motzkin_1463_2 () Real)
(assert (and (>= motzkin_1462_0 0.0) (>= motzkin_1462_1 0.0) (>= motzkin_1462_2 0.0) (= (+ motzkin_1462_0 (* motzkin_1462_1 (- 1.0)) (* motzkin_1462_2 (+ (* (- 1.0) lp_0_0_ULTIMATE.start_main_~i~4) 0.0))) 0.0) (<= (* motzkin_1462_2 (+ (* (- 1.0) lp_0_0c) 0.0)) 0.0) (or (< 0.0 0.0) (> motzkin_1462_2 0.0)) (>= motzkin_1463_0 0.0) (>= motzkin_1463_1 0.0) (>= motzkin_1463_2 0.0) (= (+ motzkin_1463_0 (* motzkin_1463_1 (- 1.0)) (* motzkin_1463_2 (+ (* (- 1.0) lp_0_1_ULTIMATE.start_main_~i~4) 0.0))) 0.0) (<= (* motzkin_1463_2 (+ (* (- 1.0) lp_0_1c) 0.0)) 0.0) (or (< 0.0 0.0) (> motzkin_1463_2 0.0))))
(declare-fun motzkin_1464_0 () Real)
(declare-fun motzkin_1464_1 () Real)
(declare-fun motzkin_1464_2 () Real)
(declare-fun motzkin_1464_3 () Real)
(declare-fun motzkin_1464_4 () Real)
(declare-fun motzkin_1464_5 () Real)
(declare-fun motzkin_1465_0 () Real)
(declare-fun motzkin_1465_1 () Real)
(declare-fun motzkin_1465_2 () Real)
(declare-fun motzkin_1465_3 () Real)
(declare-fun motzkin_1465_4 () Real)
(declare-fun motzkin_1465_5 () Real)
(assert (and (>= motzkin_1464_0 0.0) (>= motzkin_1464_1 0.0) (>= motzkin_1464_2 0.0) (>= motzkin_1464_3 0.0) (>= motzkin_1464_4 0.0) (>= motzkin_1464_5 0.0) (= (+ motzkin_1464_0 (* motzkin_1464_1 (- 1.0)) (* motzkin_1464_3 (+ (* (- 1.0) lp_1_2_ULTIMATE.start_main_~i~4) 0.0))) 0.0) (= (+ motzkin_1464_2 (* motzkin_1464_4 (+ (* 1.0 lp_0_0_ULTIMATE.start_main_~i~4) 0.0)) (* motzkin_1464_5 (+ (* 1.0 lp_0_1_ULTIMATE.start_main_~i~4) 0.0))) 0.0) (<= (+ (* motzkin_1464_2 (- 100000.0)) (* motzkin_1464_3 (+ (* (- 1.0) lp_1_2c) 0.0)) (* motzkin_1464_4 (+ (* 1.0 lp_0_0c) 0.0)) (* motzkin_1464_5 (+ (* 1.0 lp_0_1c) 0.0))) 0.0) (or (< (+ (* motzkin_1464_2 (- 100000.0)) (* motzkin_1464_4 (+ (* 1.0 lp_0_0c) 0.0)) (* motzkin_1464_5 (+ (* 1.0 lp_0_1c) 0.0))) 0.0) (> motzkin_1464_3 0.0)) (>= motzkin_1465_0 0.0) (>= motzkin_1465_1 0.0) (>= motzkin_1465_2 0.0) (>= motzkin_1465_3 0.0) (>= motzkin_1465_4 0.0) (>= motzkin_1465_5 0.0) (= (+ motzkin_1465_0 (* motzkin_1465_1 (- 1.0)) (* motzkin_1465_3 (+ (* (- 1.0) lp_1_3_ULTIMATE.start_main_~i~4) 0.0))) 0.0) (= (+ motzkin_1465_2 (* motzkin_1465_4 (+ (* 1.0 lp_0_0_ULTIMATE.start_main_~i~4) 0.0)) (* motzkin_1465_5 (+ (* 1.0 lp_0_1_ULTIMATE.start_main_~i~4) 0.0))) 0.0) (<= (+ (* motzkin_1465_2 (- 100000.0)) (* motzkin_1465_3 (+ (* (- 1.0) lp_1_3c) 0.0)) (* motzkin_1465_4 (+ (* 1.0 lp_0_0c) 0.0)) (* motzkin_1465_5 (+ (* 1.0 lp_0_1c) 0.0))) 0.0) (or (< (+ (* motzkin_1465_2 (- 100000.0)) (* motzkin_1465_4 (+ (* 1.0 lp_0_0c) 0.0)) (* motzkin_1465_5 (+ (* 1.0 lp_0_1c) 0.0))) 0.0) (> motzkin_1465_3 0.0))))
(declare-fun motzkin_1466_0 () Real)
(declare-fun motzkin_1466_1 () Real)
(declare-fun motzkin_1466_2 () Real)
(declare-fun motzkin_1466_3 () Real)
(declare-fun motzkin_1466_4 () Real)
(declare-fun motzkin_1466_5 () Real)
(declare-fun motzkin_1467_0 () Real)
(declare-fun motzkin_1467_1 () Real)
(declare-fun motzkin_1467_2 () Real)
(declare-fun motzkin_1467_3 () Real)
(declare-fun motzkin_1467_4 () Real)
(declare-fun motzkin_1467_5 () Real)
(assert (and (>= motzkin_1466_0 0.0) (>= motzkin_1466_1 0.0) (>= motzkin_1466_2 0.0) (>= motzkin_1466_3 0.0) (>= motzkin_1466_4 0.0) (>= motzkin_1466_5 0.0) (= (+ (* motzkin_1466_0 (- 1.0)) motzkin_1466_1 (* motzkin_1466_2 (- 1.0)) (* motzkin_1466_4 (+ (* 1.0 lp_0_0_ULTIMATE.start_main_~i~4) 0.0)) (* motzkin_1466_5 (+ (* 1.0 lp_0_1_ULTIMATE.start_main_~i~4) 0.0))) 0.0) (= (+ (* motzkin_1466_1 (- 1.0)) motzkin_1466_2 (* motzkin_1466_3 (+ (* (- 1.0) lp_0_0_ULTIMATE.start_main_~i~4) 0.0))) 0.0) (<= (+ (* motzkin_1466_0 99999.0) motzkin_1466_1 (* motzkin_1466_2 (- 1.0)) (* motzkin_1466_3 (+ (* (- 1.0) lp_0_0c) 0.0)) (* motzkin_1466_4 (+ (* 1.0 lp_0_0c) 0.0)) (* motzkin_1466_5 (+ (* 1.0 lp_0_1c) 0.0))) 0.0) (or (< (+ (* motzkin_1466_0 99999.0) motzkin_1466_1 (* motzkin_1466_2 (- 1.0)) (* motzkin_1466_4 (+ (* 1.0 lp_0_0c) 0.0)) (* motzkin_1466_5 (+ (* 1.0 lp_0_1c) 0.0))) 0.0) (> motzkin_1466_3 0.0)) (>= motzkin_1467_0 0.0) (>= motzkin_1467_1 0.0) (>= motzkin_1467_2 0.0) (>= motzkin_1467_3 0.0) (>= motzkin_1467_4 0.0) (>= motzkin_1467_5 0.0) (= (+ (* motzkin_1467_0 (- 1.0)) motzkin_1467_1 (* motzkin_1467_2 (- 1.0)) (* motzkin_1467_4 (+ (* 1.0 lp_0_0_ULTIMATE.start_main_~i~4) 0.0)) (* motzkin_1467_5 (+ (* 1.0 lp_0_1_ULTIMATE.start_main_~i~4) 0.0))) 0.0) (= (+ (* motzkin_1467_1 (- 1.0)) motzkin_1467_2 (* motzkin_1467_3 (+ (* (- 1.0) lp_0_1_ULTIMATE.start_main_~i~4) 0.0))) 0.0) (<= (+ (* motzkin_1467_0 99999.0) motzkin_1467_1 (* motzkin_1467_2 (- 1.0)) (* motzkin_1467_3 (+ (* (- 1.0) lp_0_1c) 0.0)) (* motzkin_1467_4 (+ (* 1.0 lp_0_0c) 0.0)) (* motzkin_1467_5 (+ (* 1.0 lp_0_1c) 0.0))) 0.0) (or (< (+ (* motzkin_1467_0 99999.0) motzkin_1467_1 (* motzkin_1467_2 (- 1.0)) (* motzkin_1467_4 (+ (* 1.0 lp_0_0c) 0.0)) (* motzkin_1467_5 (+ (* 1.0 lp_0_1c) 0.0))) 0.0) (> motzkin_1467_3 0.0))))
(declare-fun motzkin_1468_0 () Real)
(declare-fun motzkin_1468_1 () Real)
(declare-fun motzkin_1468_2 () Real)
(declare-fun motzkin_1468_3 () Real)
(declare-fun motzkin_1468_4 () Real)
(declare-fun motzkin_1468_5 () Real)
(declare-fun motzkin_1469_0 () Real)
(declare-fun motzkin_1469_1 () Real)
(declare-fun motzkin_1469_2 () Real)
(declare-fun motzkin_1469_3 () Real)
(declare-fun motzkin_1469_4 () Real)
(declare-fun motzkin_1469_5 () Real)
(assert (and (>= motzkin_1468_0 0.0) (>= motzkin_1468_1 0.0) (>= motzkin_1468_2 0.0) (>= motzkin_1468_3 0.0) (>= motzkin_1468_4 0.0) (>= motzkin_1468_5 0.0) (= (+ (* motzkin_1468_0 (- 1.0)) motzkin_1468_2 (* motzkin_1468_3 (+ (* (- 1.0) lp_1_2_ULTIMATE.start_main_~i~4) 0.0))) 0.0) (= (+ motzkin_1468_0 (* motzkin_1468_1 (- 1.0)) (* motzkin_1468_2 (- 1.0)) (* motzkin_1468_4 (+ (* 1.0 lp_1_2_ULTIMATE.start_main_~i~4) 0.0)) (* motzkin_1468_5 (+ (* 1.0 lp_1_3_ULTIMATE.start_main_~i~4) 0.0))) 0.0) (<= (+ motzkin_1468_0 (* motzkin_1468_1 99999.0) (* motzkin_1468_2 (- 1.0)) (* motzkin_1468_3 (+ (* (- 1.0) lp_1_2c) 0.0)) (* motzkin_1468_4 (+ (* 1.0 lp_1_2c) 0.0)) (* motzkin_1468_5 (+ (* 1.0 lp_1_3c) 0.0))) 0.0) (or (< (+ motzkin_1468_0 (* motzkin_1468_1 99999.0) (* motzkin_1468_2 (- 1.0)) (* motzkin_1468_4 (+ (* 1.0 lp_1_2c) 0.0)) (* motzkin_1468_5 (+ (* 1.0 lp_1_3c) 0.0))) 0.0) (> motzkin_1468_3 0.0)) (>= motzkin_1469_0 0.0) (>= motzkin_1469_1 0.0) (>= motzkin_1469_2 0.0) (>= motzkin_1469_3 0.0) (>= motzkin_1469_4 0.0) (>= motzkin_1469_5 0.0) (= (+ (* motzkin_1469_0 (- 1.0)) motzkin_1469_2 (* motzkin_1469_3 (+ (* (- 1.0) lp_1_3_ULTIMATE.start_main_~i~4) 0.0))) 0.0) (= (+ motzkin_1469_0 (* motzkin_1469_1 (- 1.0)) (* motzkin_1469_2 (- 1.0)) (* motzkin_1469_4 (+ (* 1.0 lp_1_2_ULTIMATE.start_main_~i~4) 0.0)) (* motzkin_1469_5 (+ (* 1.0 lp_1_3_ULTIMATE.start_main_~i~4) 0.0))) 0.0) (<= (+ motzkin_1469_0 (* motzkin_1469_1 99999.0) (* motzkin_1469_2 (- 1.0)) (* motzkin_1469_3 (+ (* (- 1.0) lp_1_3c) 0.0)) (* motzkin_1469_4 (+ (* 1.0 lp_1_2c) 0.0)) (* motzkin_1469_5 (+ (* 1.0 lp_1_3c) 0.0))) 0.0) (or (< (+ motzkin_1469_0 (* motzkin_1469_1 99999.0) (* motzkin_1469_2 (- 1.0)) (* motzkin_1469_4 (+ (* 1.0 lp_1_2c) 0.0)) (* motzkin_1469_5 (+ (* 1.0 lp_1_3c) 0.0))) 0.0) (> motzkin_1469_3 0.0))))
(declare-fun motzkin_1470_0 () Real)
(declare-fun motzkin_1470_1 () Real)
(declare-fun motzkin_1470_2 () Real)
(declare-fun motzkin_1470_3 () Real)
(declare-fun motzkin_1470_4 () Real)
(declare-fun motzkin_1470_5 () Real)
(declare-fun motzkin_1471_0 () Real)
(declare-fun motzkin_1471_1 () Real)
(declare-fun motzkin_1471_2 () Real)
(declare-fun motzkin_1471_3 () Real)
(declare-fun motzkin_1471_4 () Real)
(declare-fun motzkin_1471_5 () Real)
(assert (and (>= motzkin_1470_0 0.0) (>= motzkin_1470_1 0.0) (>= motzkin_1470_2 0.0) (>= motzkin_1470_3 0.0) (>= motzkin_1470_4 0.0) (>= motzkin_1470_5 0.0) (= (+ motzkin_1470_0 (* motzkin_1470_4 (+ (* 1.0 lp_1_2_ULTIMATE.start_main_~i~4) 0.0)) (* motzkin_1470_5 (+ (* 1.0 lp_1_3_ULTIMATE.start_main_~i~4) 0.0))) 0.0) (= (+ motzkin_1470_1 (* motzkin_1470_2 (- 1.0)) (* motzkin_1470_3 (+ (* (- 1.0) lp_2_4_ULTIMATE.start_main_~i~4) 0.0))) 0.0) (<= (+ (* motzkin_1470_0 (- 100000.0)) (* motzkin_1470_3 (+ (* (- 1.0) lp_2_4c) 0.0)) (* motzkin_1470_4 (+ (* 1.0 lp_1_2c) 0.0)) (* motzkin_1470_5 (+ (* 1.0 lp_1_3c) 0.0))) 0.0) (or (< (+ (* motzkin_1470_0 (- 100000.0)) (* motzkin_1470_4 (+ (* 1.0 lp_1_2c) 0.0)) (* motzkin_1470_5 (+ (* 1.0 lp_1_3c) 0.0))) 0.0) (> motzkin_1470_3 0.0)) (>= motzkin_1471_0 0.0) (>= motzkin_1471_1 0.0) (>= motzkin_1471_2 0.0) (>= motzkin_1471_3 0.0) (>= motzkin_1471_4 0.0) (>= motzkin_1471_5 0.0) (= (+ motzkin_1471_0 (* motzkin_1471_4 (+ (* 1.0 lp_1_2_ULTIMATE.start_main_~i~4) 0.0)) (* motzkin_1471_5 (+ (* 1.0 lp_1_3_ULTIMATE.start_main_~i~4) 0.0))) 0.0) (= (+ motzkin_1471_1 (* motzkin_1471_2 (- 1.0)) (* motzkin_1471_3 (+ (* (- 1.0) lp_2_5_ULTIMATE.start_main_~i~4) 0.0))) 0.0) (<= (+ (* motzkin_1471_0 (- 100000.0)) (* motzkin_1471_3 (+ (* (- 1.0) lp_2_5c) 0.0)) (* motzkin_1471_4 (+ (* 1.0 lp_1_2c) 0.0)) (* motzkin_1471_5 (+ (* 1.0 lp_1_3c) 0.0))) 0.0) (or (< (+ (* motzkin_1471_0 (- 100000.0)) (* motzkin_1471_4 (+ (* 1.0 lp_1_2c) 0.0)) (* motzkin_1471_5 (+ (* 1.0 lp_1_3c) 0.0))) 0.0) (> motzkin_1471_3 0.0))))
(declare-fun motzkin_1472_0 () Real)
(declare-fun motzkin_1472_1 () Real)
(declare-fun motzkin_1472_2 () Real)
(declare-fun motzkin_1472_3 () Real)
(declare-fun motzkin_1472_4 () Real)
(declare-fun motzkin_1472_5 () Real)
(declare-fun motzkin_1473_0 () Real)
(declare-fun motzkin_1473_1 () Real)
(declare-fun motzkin_1473_2 () Real)
(declare-fun motzkin_1473_3 () Real)
(declare-fun motzkin_1473_4 () Real)
(declare-fun motzkin_1473_5 () Real)
(assert (and (>= motzkin_1472_0 0.0) (>= motzkin_1472_1 0.0) (>= motzkin_1472_2 0.0) (>= motzkin_1472_3 0.0) (>= motzkin_1472_4 0.0) (>= motzkin_1472_5 0.0) (= (+ (* motzkin_1472_0 (- 1.0)) motzkin_1472_1 (* motzkin_1472_3 (+ (* (- 1.0) lp_3_6_ULTIMATE.start_main_~i~4) 0.0))) 0.0) (= (+ motzkin_1472_2 (* motzkin_1472_4 (+ (* 1.0 lp_2_4_ULTIMATE.start_main_~i~4) 0.0)) (* motzkin_1472_5 (+ (* 1.0 lp_2_5_ULTIMATE.start_main_~i~4) 0.0))) 0.0) (<= (+ (* motzkin_1472_2 (- 100000.0)) (* motzkin_1472_3 (+ (* (- 1.0) lp_3_6c) 0.0)) (* motzkin_1472_4 (+ (* 1.0 lp_2_4c) 0.0)) (* motzkin_1472_5 (+ (* 1.0 lp_2_5c) 0.0))) 0.0) (or (< (+ (* motzkin_1472_2 (- 100000.0)) (* motzkin_1472_4 (+ (* 1.0 lp_2_4c) 0.0)) (* motzkin_1472_5 (+ (* 1.0 lp_2_5c) 0.0))) 0.0) (> motzkin_1472_3 0.0)) (>= motzkin_1473_0 0.0) (>= motzkin_1473_1 0.0) (>= motzkin_1473_2 0.0) (>= motzkin_1473_3 0.0) (>= motzkin_1473_4 0.0) (>= motzkin_1473_5 0.0) (= (+ (* motzkin_1473_0 (- 1.0)) motzkin_1473_1 (* motzkin_1473_3 (+ (* (- 1.0) lp_3_7_ULTIMATE.start_main_~i~4) 0.0))) 0.0) (= (+ motzkin_1473_2 (* motzkin_1473_4 (+ (* 1.0 lp_2_4_ULTIMATE.start_main_~i~4) 0.0)) (* motzkin_1473_5 (+ (* 1.0 lp_2_5_ULTIMATE.start_main_~i~4) 0.0))) 0.0) (<= (+ (* motzkin_1473_2 (- 100000.0)) (* motzkin_1473_3 (+ (* (- 1.0) lp_3_7c) 0.0)) (* motzkin_1473_4 (+ (* 1.0 lp_2_4c) 0.0)) (* motzkin_1473_5 (+ (* 1.0 lp_2_5c) 0.0))) 0.0) (or (< (+ (* motzkin_1473_2 (- 100000.0)) (* motzkin_1473_4 (+ (* 1.0 lp_2_4c) 0.0)) (* motzkin_1473_5 (+ (* 1.0 lp_2_5c) 0.0))) 0.0) (> motzkin_1473_3 0.0))))
(declare-fun motzkin_1474_0 () Real)
(declare-fun motzkin_1474_1 () Real)
(declare-fun motzkin_1474_2 () Real)
(declare-fun motzkin_1474_3 () Real)
(declare-fun motzkin_1474_4 () Real)
(declare-fun motzkin_1474_5 () Real)
(declare-fun motzkin_1475_0 () Real)
(declare-fun motzkin_1475_1 () Real)
(declare-fun motzkin_1475_2 () Real)
(declare-fun motzkin_1475_3 () Real)
(declare-fun motzkin_1475_4 () Real)
(declare-fun motzkin_1475_5 () Real)
(assert (and (>= motzkin_1474_0 0.0) (>= motzkin_1474_1 0.0) (>= motzkin_1474_2 0.0) (>= motzkin_1474_3 0.0) (>= motzkin_1474_4 0.0) (>= motzkin_1474_5 0.0) (= (+ (* motzkin_1474_0 (- 1.0)) motzkin_1474_1 (* motzkin_1474_2 (- 1.0)) (* motzkin_1474_4 (+ (* 1.0 lp_2_4_ULTIMATE.start_main_~i~4) 0.0)) (* motzkin_1474_5 (+ (* 1.0 lp_2_5_ULTIMATE.start_main_~i~4) 0.0))) 0.0) (= (+ (* motzkin_1474_1 (- 1.0)) motzkin_1474_2 (* motzkin_1474_3 (+ (* (- 1.0) lp_2_4_ULTIMATE.start_main_~i~4) 0.0))) 0.0) (<= (+ (* motzkin_1474_0 99999.0) motzkin_1474_1 (* motzkin_1474_2 (- 1.0)) (* motzkin_1474_3 (+ (* (- 1.0) lp_2_4c) 0.0)) (* motzkin_1474_4 (+ (* 1.0 lp_2_4c) 0.0)) (* motzkin_1474_5 (+ (* 1.0 lp_2_5c) 0.0))) 0.0) (or (< (+ (* motzkin_1474_0 99999.0) motzkin_1474_1 (* motzkin_1474_2 (- 1.0)) (* motzkin_1474_4 (+ (* 1.0 lp_2_4c) 0.0)) (* motzkin_1474_5 (+ (* 1.0 lp_2_5c) 0.0))) 0.0) (> motzkin_1474_3 0.0)) (>= motzkin_1475_0 0.0) (>= motzkin_1475_1 0.0) (>= motzkin_1475_2 0.0) (>= motzkin_1475_3 0.0) (>= motzkin_1475_4 0.0) (>= motzkin_1475_5 0.0) (= (+ (* motzkin_1475_0 (- 1.0)) motzkin_1475_1 (* motzkin_1475_2 (- 1.0)) (* motzkin_1475_4 (+ (* 1.0 lp_2_4_ULTIMATE.start_main_~i~4) 0.0)) (* motzkin_1475_5 (+ (* 1.0 lp_2_5_ULTIMATE.start_main_~i~4) 0.0))) 0.0) (= (+ (* motzkin_1475_1 (- 1.0)) motzkin_1475_2 (* motzkin_1475_3 (+ (* (- 1.0) lp_2_5_ULTIMATE.start_main_~i~4) 0.0))) 0.0) (<= (+ (* motzkin_1475_0 99999.0) motzkin_1475_1 (* motzkin_1475_2 (- 1.0)) (* motzkin_1475_3 (+ (* (- 1.0) lp_2_5c) 0.0)) (* motzkin_1475_4 (+ (* 1.0 lp_2_4c) 0.0)) (* motzkin_1475_5 (+ (* 1.0 lp_2_5c) 0.0))) 0.0) (or (< (+ (* motzkin_1475_0 99999.0) motzkin_1475_1 (* motzkin_1475_2 (- 1.0)) (* motzkin_1475_4 (+ (* 1.0 lp_2_4c) 0.0)) (* motzkin_1475_5 (+ (* 1.0 lp_2_5c) 0.0))) 0.0) (> motzkin_1475_3 0.0))))
(declare-fun motzkin_1476_0 () Real)
(declare-fun motzkin_1476_1 () Real)
(declare-fun motzkin_1476_2 () Real)
(declare-fun motzkin_1476_3 () Real)
(declare-fun motzkin_1476_4 () Real)
(declare-fun motzkin_1476_5 () Real)
(declare-fun motzkin_1477_0 () Real)
(declare-fun motzkin_1477_1 () Real)
(declare-fun motzkin_1477_2 () Real)
(declare-fun motzkin_1477_3 () Real)
(declare-fun motzkin_1477_4 () Real)
(declare-fun motzkin_1477_5 () Real)
(assert (and (>= motzkin_1476_0 0.0) (>= motzkin_1476_1 0.0) (>= motzkin_1476_2 0.0) (>= motzkin_1476_3 0.0) (>= motzkin_1476_4 0.0) (>= motzkin_1476_5 0.0) (= (+ (* motzkin_1476_0 (- 1.0)) motzkin_1476_2 (* motzkin_1476_3 (+ (* (- 1.0) lp_4_8_ULTIMATE.start_main_~i~4) 0.0))) 0.0) (= (+ motzkin_1476_1 (* motzkin_1476_4 (+ (* 1.0 lp_3_6_ULTIMATE.start_main_~i~4) 0.0)) (* motzkin_1476_5 (+ (* 1.0 lp_3_7_ULTIMATE.start_main_~i~4) 0.0))) 0.0) (<= (+ (* motzkin_1476_1 (- 100000.0)) (* motzkin_1476_3 (+ (* (- 1.0) lp_4_8c) 0.0)) (* motzkin_1476_4 (+ (* 1.0 lp_3_6c) 0.0)) (* motzkin_1476_5 (+ (* 1.0 lp_3_7c) 0.0))) 0.0) (or (< (+ (* motzkin_1476_1 (- 100000.0)) (* motzkin_1476_4 (+ (* 1.0 lp_3_6c) 0.0)) (* motzkin_1476_5 (+ (* 1.0 lp_3_7c) 0.0))) 0.0) (> motzkin_1476_3 0.0)) (>= motzkin_1477_0 0.0) (>= motzkin_1477_1 0.0) (>= motzkin_1477_2 0.0) (>= motzkin_1477_3 0.0) (>= motzkin_1477_4 0.0) (>= motzkin_1477_5 0.0) (= (+ (* motzkin_1477_0 (- 1.0)) motzkin_1477_2 (* motzkin_1477_3 (+ (* (- 1.0) lp_4_9_ULTIMATE.start_main_~i~4) 0.0))) 0.0) (= (+ motzkin_1477_1 (* motzkin_1477_4 (+ (* 1.0 lp_3_6_ULTIMATE.start_main_~i~4) 0.0)) (* motzkin_1477_5 (+ (* 1.0 lp_3_7_ULTIMATE.start_main_~i~4) 0.0))) 0.0) (<= (+ (* motzkin_1477_1 (- 100000.0)) (* motzkin_1477_3 (+ (* (- 1.0) lp_4_9c) 0.0)) (* motzkin_1477_4 (+ (* 1.0 lp_3_6c) 0.0)) (* motzkin_1477_5 (+ (* 1.0 lp_3_7c) 0.0))) 0.0) (or (< (+ (* motzkin_1477_1 (- 100000.0)) (* motzkin_1477_4 (+ (* 1.0 lp_3_6c) 0.0)) (* motzkin_1477_5 (+ (* 1.0 lp_3_7c) 0.0))) 0.0) (> motzkin_1477_3 0.0))))
(declare-fun motzkin_1478_0 () Real)
(declare-fun motzkin_1478_1 () Real)
(declare-fun motzkin_1478_2 () Real)
(declare-fun motzkin_1478_3 () Real)
(declare-fun motzkin_1478_4 () Real)
(declare-fun motzkin_1478_5 () Real)
(declare-fun motzkin_1479_0 () Real)
(declare-fun motzkin_1479_1 () Real)
(declare-fun motzkin_1479_2 () Real)
(declare-fun motzkin_1479_3 () Real)
(declare-fun motzkin_1479_4 () Real)
(declare-fun motzkin_1479_5 () Real)
(assert (and (>= motzkin_1478_0 0.0) (>= motzkin_1478_1 0.0) (>= motzkin_1478_2 0.0) (>= motzkin_1478_3 0.0) (>= motzkin_1478_4 0.0) (>= motzkin_1478_5 0.0) (= (+ motzkin_1478_0 (* motzkin_1478_2 (- 1.0)) (* motzkin_1478_3 (+ (* (- 1.0) lp_3_6_ULTIMATE.start_main_~i~4) 0.0))) 0.0) (= (+ (* motzkin_1478_0 (- 1.0)) (* motzkin_1478_1 (- 1.0)) motzkin_1478_2 (* motzkin_1478_4 (+ (* 1.0 lp_3_6_ULTIMATE.start_main_~i~4) 0.0)) (* motzkin_1478_5 (+ (* 1.0 lp_3_7_ULTIMATE.start_main_~i~4) 0.0))) 0.0) (<= (+ (* motzkin_1478_0 (- 1.0)) (* motzkin_1478_1 99999.0) motzkin_1478_2 (* motzkin_1478_3 (+ (* (- 1.0) lp_3_6c) 0.0)) (* motzkin_1478_4 (+ (* 1.0 lp_3_6c) 0.0)) (* motzkin_1478_5 (+ (* 1.0 lp_3_7c) 0.0))) 0.0) (or (< (+ (* motzkin_1478_0 (- 1.0)) (* motzkin_1478_1 99999.0) motzkin_1478_2 (* motzkin_1478_4 (+ (* 1.0 lp_3_6c) 0.0)) (* motzkin_1478_5 (+ (* 1.0 lp_3_7c) 0.0))) 0.0) (> motzkin_1478_3 0.0)) (>= motzkin_1479_0 0.0) (>= motzkin_1479_1 0.0) (>= motzkin_1479_2 0.0) (>= motzkin_1479_3 0.0) (>= motzkin_1479_4 0.0) (>= motzkin_1479_5 0.0) (= (+ motzkin_1479_0 (* motzkin_1479_2 (- 1.0)) (* motzkin_1479_3 (+ (* (- 1.0) lp_3_7_ULTIMATE.start_main_~i~4) 0.0))) 0.0) (= (+ (* motzkin_1479_0 (- 1.0)) (* motzkin_1479_1 (- 1.0)) motzkin_1479_2 (* motzkin_1479_4 (+ (* 1.0 lp_3_6_ULTIMATE.start_main_~i~4) 0.0)) (* motzkin_1479_5 (+ (* 1.0 lp_3_7_ULTIMATE.start_main_~i~4) 0.0))) 0.0) (<= (+ (* motzkin_1479_0 (- 1.0)) (* motzkin_1479_1 99999.0) motzkin_1479_2 (* motzkin_1479_3 (+ (* (- 1.0) lp_3_7c) 0.0)) (* motzkin_1479_4 (+ (* 1.0 lp_3_6c) 0.0)) (* motzkin_1479_5 (+ (* 1.0 lp_3_7c) 0.0))) 0.0) (or (< (+ (* motzkin_1479_0 (- 1.0)) (* motzkin_1479_1 99999.0) motzkin_1479_2 (* motzkin_1479_4 (+ (* 1.0 lp_3_6c) 0.0)) (* motzkin_1479_5 (+ (* 1.0 lp_3_7c) 0.0))) 0.0) (> motzkin_1479_3 0.0))))
(declare-fun motzkin_1480_0 () Real)
(declare-fun motzkin_1480_1 () Real)
(declare-fun motzkin_1480_2 () Real)
(declare-fun motzkin_1480_3 () Real)
(declare-fun motzkin_1480_4 () Real)
(declare-fun motzkin_1480_5 () Real)
(declare-fun motzkin_1481_0 () Real)
(declare-fun motzkin_1481_1 () Real)
(declare-fun motzkin_1481_2 () Real)
(declare-fun motzkin_1481_3 () Real)
(declare-fun motzkin_1481_4 () Real)
(declare-fun motzkin_1481_5 () Real)
(assert (and (>= motzkin_1480_0 0.0) (>= motzkin_1480_1 0.0) (>= motzkin_1480_2 0.0) (>= motzkin_1480_3 0.0) (>= motzkin_1480_4 0.0) (>= motzkin_1480_5 0.0) (= (+ (* motzkin_1480_0 (- 1.0)) (* motzkin_1480_1 (- 1.0)) motzkin_1480_2 (* motzkin_1480_4 (+ (* 1.0 lp_4_8_ULTIMATE.start_main_~i~4) 0.0)) (* motzkin_1480_5 (+ (* 1.0 lp_4_9_ULTIMATE.start_main_~i~4) 0.0))) 0.0) (= (+ motzkin_1480_1 (* motzkin_1480_2 (- 1.0)) (* motzkin_1480_3 (+ (* (- 1.0) lp_4_8_ULTIMATE.start_main_~i~4) 0.0))) 0.0) (<= (+ (* motzkin_1480_0 99999.0) (* motzkin_1480_1 (- 1.0)) motzkin_1480_2 (* motzkin_1480_3 (+ (* (- 1.0) lp_4_8c) 0.0)) (* motzkin_1480_4 (+ (* 1.0 lp_4_8c) 0.0)) (* motzkin_1480_5 (+ (* 1.0 lp_4_9c) 0.0))) 0.0) (or (< (+ (* motzkin_1480_0 99999.0) (* motzkin_1480_1 (- 1.0)) motzkin_1480_2 (* motzkin_1480_4 (+ (* 1.0 lp_4_8c) 0.0)) (* motzkin_1480_5 (+ (* 1.0 lp_4_9c) 0.0))) 0.0) (> motzkin_1480_3 0.0)) (>= motzkin_1481_0 0.0) (>= motzkin_1481_1 0.0) (>= motzkin_1481_2 0.0) (>= motzkin_1481_3 0.0) (>= motzkin_1481_4 0.0) (>= motzkin_1481_5 0.0) (= (+ (* motzkin_1481_0 (- 1.0)) (* motzkin_1481_1 (- 1.0)) motzkin_1481_2 (* motzkin_1481_4 (+ (* 1.0 lp_4_8_ULTIMATE.start_main_~i~4) 0.0)) (* motzkin_1481_5 (+ (* 1.0 lp_4_9_ULTIMATE.start_main_~i~4) 0.0))) 0.0) (= (+ motzkin_1481_1 (* motzkin_1481_2 (- 1.0)) (* motzkin_1481_3 (+ (* (- 1.0) lp_4_9_ULTIMATE.start_main_~i~4) 0.0))) 0.0) (<= (+ (* motzkin_1481_0 99999.0) (* motzkin_1481_1 (- 1.0)) motzkin_1481_2 (* motzkin_1481_3 (+ (* (- 1.0) lp_4_9c) 0.0)) (* motzkin_1481_4 (+ (* 1.0 lp_4_8c) 0.0)) (* motzkin_1481_5 (+ (* 1.0 lp_4_9c) 0.0))) 0.0) (or (< (+ (* motzkin_1481_0 99999.0) (* motzkin_1481_1 (- 1.0)) motzkin_1481_2 (* motzkin_1481_4 (+ (* 1.0 lp_4_8c) 0.0)) (* motzkin_1481_5 (+ (* 1.0 lp_4_9c) 0.0))) 0.0) (> motzkin_1481_3 0.0))))
(declare-fun motzkin_1482_0 () Real)
(declare-fun motzkin_1482_1 () Real)
(declare-fun motzkin_1482_2 () Real)
(declare-fun motzkin_1482_3 () Real)
(declare-fun motzkin_1482_4 () Real)
(declare-fun motzkin_1482_5 () Real)
(declare-fun motzkin_1482_6 () Real)
(declare-fun motzkin_1482_7 () Real)
(declare-fun motzkin_1482_8 () Real)
(declare-fun motzkin_1482_9 () Real)
(declare-fun motzkin_1483_0 () Real)
(declare-fun motzkin_1483_1 () Real)
(declare-fun motzkin_1483_2 () Real)
(declare-fun motzkin_1483_3 () Real)
(declare-fun motzkin_1483_4 () Real)
(declare-fun motzkin_1483_5 () Real)
(declare-fun motzkin_1483_6 () Real)
(declare-fun motzkin_1483_7 () Real)
(declare-fun motzkin_1483_8 () Real)
(declare-fun motzkin_1483_9 () Real)
(assert (and (>= motzkin_1482_0 0.0) (>= motzkin_1482_1 0.0) (>= motzkin_1482_2 0.0) (>= motzkin_1482_3 0.0) (>= motzkin_1482_4 0.0) (>= motzkin_1482_5 0.0) (>= motzkin_1482_6 0.0) (>= motzkin_1482_7 0.0) (>= motzkin_1482_8 0.0) (>= motzkin_1482_9 0.0) (= (+ (* motzkin_1482_0 (- 1.0)) motzkin_1482_1 (* motzkin_1482_2 (- 1.0)) motzkin_1482_6) 0.0) (= (+ motzkin_1482_0 (* motzkin_1482_6 (- 1.0))) 0.0) (= (+ motzkin_1482_3 (* motzkin_1482_8 (+ (* 1.0 lp_4_8_ULTIMATE.start_main_~i~4) 0.0)) (* motzkin_1482_9 (+ (* 1.0 lp_4_9_ULTIMATE.start_main_~i~4) 0.0))) 0.0) (= (* motzkin_1482_4 (- 1.0)) 0.0) (= motzkin_1482_4 0.0) (= (+ motzkin_1482_5 (* motzkin_1482_7 (- 1.0))) 0.0) (<= (+ (* motzkin_1482_3 (- 100000.0)) (* motzkin_1482_4 (- 1.0)) (* motzkin_1482_8 (+ (* 1.0 lp_4_8c) 0.0)) (* motzkin_1482_9 (+ (* 1.0 lp_4_9c) 0.0))) 0.0) (or (< (+ (* motzkin_1482_3 (- 100000.0)) (* motzkin_1482_4 (- 1.0)) (* motzkin_1482_8 (+ (* 1.0 lp_4_8c) 0.0)) (* motzkin_1482_9 (+ (* 1.0 lp_4_9c) 0.0))) 0.0) (> 0.0 0.0)) (>= motzkin_1483_0 0.0) (>= motzkin_1483_1 0.0) (>= motzkin_1483_2 0.0) (>= motzkin_1483_3 0.0) (>= motzkin_1483_4 0.0) (>= motzkin_1483_5 0.0) (>= motzkin_1483_6 0.0) (>= motzkin_1483_7 0.0) (>= motzkin_1483_8 0.0) (>= motzkin_1483_9 0.0) (= (+ (* motzkin_1483_0 (- 1.0)) motzkin_1483_1 (* motzkin_1483_2 (- 1.0)) motzkin_1483_6) 0.0) (= (+ motzkin_1483_0 (* motzkin_1483_6 (- 1.0))) 0.0) (= (+ motzkin_1483_3 (* motzkin_1483_8 (+ (* 1.0 lp_4_8_ULTIMATE.start_main_~i~4) 0.0)) (* motzkin_1483_9 (+ (* 1.0 lp_4_9_ULTIMATE.start_main_~i~4) 0.0))) 0.0) (= motzkin_1483_4 0.0) (= (* motzkin_1483_4 (- 1.0)) 0.0) (= (+ motzkin_1483_5 (* motzkin_1483_7 (- 1.0))) 0.0) (<= (+ (* motzkin_1483_3 (- 100000.0)) (* motzkin_1483_4 (- 1.0)) (* motzkin_1483_8 (+ (* 1.0 lp_4_8c) 0.0)) (* motzkin_1483_9 (+ (* 1.0 lp_4_9c) 0.0))) 0.0) (or (< (+ (* motzkin_1483_3 (- 100000.0)) (* motzkin_1483_4 (- 1.0)) (* motzkin_1483_8 (+ (* 1.0 lp_4_8c) 0.0)) (* motzkin_1483_9 (+ (* 1.0 lp_4_9c) 0.0))) 0.0) (> 0.0 0.0))))
(check-sat)
(exit)
